unknown
(model
; cardinality of BoundSet is 3
(declare-sort BoundSet 0)
; rep: @uc_BoundSet_0
; rep: @uc_BoundSet_1
; rep: @uc_BoundSet_2
; cardinality of UnboundSet is 1
(declare-sort UnboundSet 0)
(declare-fun groundTerm_4 () UnboundSet)
(define-fun MovedIn ((BOUND_VARIABLE_394 BoundSet) (BOUND_VARIABLE_395 BoundSet)) Bool true)
(define-fun WasBurglarized ((BOUND_VARIABLE_398 BoundSet)) Bool true)
(define-fun IsInvolved ((BOUND_VARIABLE_394 BoundSet) (BOUND_VARIABLE_395 BoundSet)) Bool false)
)
sat
(model
; cardinality of BoundSet is 1
(declare-sort BoundSet 0)
; rep: @uc_BoundSet_0
; cardinality of UnboundSet is 1
(declare-sort UnboundSet 0)
(declare-fun groundTerm_6 () UnboundSet)
(define-fun MovedIn ((BOUND_VARIABLE_429 BoundSet) (BOUND_VARIABLE_430 BoundSet)) Bool true)
(define-fun WasBurglarized ((BOUND_VARIABLE_433 BoundSet)) Bool true)
(define-fun IsInvolved ((BOUND_VARIABLE_429 BoundSet) (BOUND_VARIABLE_430 BoundSet)) Bool false)
)
